NAME : morphed22-2-7
COMMENT : Generated using the function morphInstances from the R-package netgen (Bossek,2015) - Number of clusters: 2 Alpha: 0.5
TYPE : TSP
DIMENSION : 22
EDGE_WEIGHT_TYPE : EUC_2D
NODE_COORD_SECTION
1 82.8108382927 65.7214284181
2 35.2625191986 79.4659303458
3 16.5251040969 80.3855289257
4 31.6200908407 11.2715372988
5 22.6066176654 60.566099887
6 76.8130211638 44.0142423548
7 28.6776740687 79.8823380382
8 84.0588730849 30.4687660456
9 17.9033966979 63.0858510358
10 53.818131019 28.1586749083
11 37.5625138081 20.158921453
12 36.988931333 18.7696303429
13 73.7096215743 31.6992501009
14 13.5228686672 70.6456877162
15 55.1107122125 39.6823174018
16 10.6796343557 69.1979747074
17 40.4817233961 70.9351587295
18 1.2764397712 49.2512652323
19 84.0051695119 52.6312605382
20 28.0331760043 43.6140617262
21 65.0527752058 53.6018147329
22 25.2206847143 50.2455684836
EOF
